language ESSENCE' 1.0
letting w be 6
letting n be 48
letting noCrates be 2
letting noGoals be 2
letting pInit be 33
letting stps be 7
letting crates be [14, 20]
letting goals be [20, 13]
letting noWalls be 24
letting walls be [0, 1, 2, 3, 4, 5, 6, 11, 12, 17, 18, 23, 24, 29, 30, 35, 36, 41, 42, 43, 44, 45, 46, 47]